81 91992
53 80 54 67 4 34 65 60 30 40 10 28 81 39 26 20 23 25 29 63 35 6 70 14 78 12 74 71 79 58 38 37 18 51 27 69 22 75 73 41 49 32 33 19 3 55 59 36 21 15 11 44 2 66 43 5 1 13 62 42 17 45 72 77 24 7 31 52 56 68 46 61 47 64 16 76 57 48 50 9 8 
